(declare-fun temp3010_2 () (_ BitVec 64))
(declare-fun temp3010_1 () (_ BitVec 64))
(declare-fun temp3010_3 () (_ BitVec 64))
(declare-fun temp3010_4 () (_ BitVec 64))
(declare-fun var66396 () (_ BitVec 64))
(declare-fun k!0 () Bool)
(declare-fun ARGNAME_input_NAMEEND_DIM () (_ BitVec 64))
(declare-fun temp3010_5 () (_ BitVec 64))
(declare-fun var66451 () (_ BitVec 64))
(declare-fun temp3010_6 () (_ BitVec 64))
(declare-fun temp3010_8 () (_ BitVec 64))
(declare-fun temp3010_7 () (_ BitVec 64))
(declare-fun temp3010_10 () (_ BitVec 64))
(declare-fun temp3010_9 () (_ BitVec 64))
(declare-fun temp3010_12 () (_ BitVec 64))
(declare-fun temp3010_11 () (_ BitVec 64))
(declare-fun temp3010_13 () (_ BitVec 64))
(declare-fun var66636 () (_ BitVec 64))
(declare-fun temp3010_14 () (_ BitVec 64))
(declare-fun temp3010_15 () (_ BitVec 64))
(declare-fun var985162 () (_ BitVec 64))
(declare-fun temp3010_16 () (_ BitVec 64))
(declare-fun var1640522 () (_ BitVec 64))
(declare-fun temp3010_17 () (_ BitVec 64))
(declare-fun var2426954 () (_ BitVec 64))
(assert (= temp3010_2 #x0000000000000001))
(assert (= temp3010_1 temp3010_2))
(assert (= temp3010_3 #x0000000000000002))
(assert (= var66396
   (ite (bvsgt ARGNAME_input_NAMEEND_DIM temp3010_3)
        #x0000000000000001
        #x0000000000000000)))
(assert (= temp3010_4 #x0000000000000000))
(assert (= var66396 temp3010_4))
(assert (= temp3010_5 #x0000000000000002))
(assert (= var66451
   (ite (bvslt ARGNAME_input_NAMEEND_DIM temp3010_5)
        #x0000000000000001
        #x0000000000000000)))
(assert (= temp3010_6 #x0000000000000001))
(assert (= var66451 temp3010_6))
(assert (= temp3010_8 #x0000000000000001))
(assert (= temp3010_7 temp3010_8))
(assert (= temp3010_10 #xffffffffffffffff))
(assert (= temp3010_9 temp3010_10))
(assert (= temp3010_12 #x0000000000000002))
(assert (= temp3010_11 temp3010_12))
(assert (= temp3010_13 #x0000000000000000))
(assert (= var66636 temp3010_13))
(assert (= temp3010_14 #x0000000000000000))
(assert (= var66636 temp3010_14))
(assert (= temp3010_15 #x0000000000000000))
(assert (= var985162 temp3010_15))
(assert (= temp3010_16 #x0000000000000000))
(assert (= var1640522 temp3010_16))
(assert (= temp3010_17 #x0000000000000000))
(assert (= var2426954 temp3010_17))
(model-add temp3010_2 () (_ BitVec 64) #x0000000000000001)
(model-add temp3010_1 () (_ BitVec 64) #x0000000000000001)
(model-add temp3010_3 () (_ BitVec 64) #x0000000000000002)
(model-add temp3010_4 () (_ BitVec 64) #x0000000000000000)
(model-add var66396 () (_ BitVec 64) #x0000000000000000)
(model-del k!0)
(model-add ARGNAME_input_NAMEEND_DIM
           ()
           (_ BitVec 64)
           (ite (or k!0 (= #x0000000000000002 #x7fffffffffffffff))
                #x0000000000000002
                (bvadd #x0000000000000002 #x0000000000000001)))






